c Reduced graph for GEOM80a_4 generated by Cyril Grelier
p edge 72 551
v 1 10
v 2 10
v 3 10
v 4 10
v 5 10
v 6 9
v 7 9
v 8 9
v 9 9
v 10 9
v 11 9
v 12 9
v 13 9
v 14 8
v 15 8
v 16 8
v 17 8
v 18 8
v 19 7
v 20 7
v 21 7
v 22 7
v 23 7
v 24 7
v 25 6
v 26 6
v 27 6
v 28 6
v 29 6
v 30 6
v 31 5
v 32 5
v 33 5
v 34 5
v 35 5
v 36 5
v 37 5
v 38 5
v 39 4
v 40 4
v 41 4
v 42 4
v 43 4
v 44 4
v 45 4
v 46 4
v 47 3
v 48 3
v 49 3
v 50 3
v 51 3
v 52 3
v 53 3
v 54 3
v 55 3
v 56 2
v 57 2
v 58 2
v 59 2
v 60 2
v 61 2
v 62 2
v 63 2
v 64 2
v 65 1
v 66 1
v 67 1
v 68 1
v 69 1
v 70 1
v 71 1
v 72 1
e 1 2
e 1 3
e 1 6
e 1 7
e 1 10
e 1 12
e 1 25
e 1 27
e 1 36
e 1 38
e 1 40
e 1 49
e 1 50
e 1 52
e 1 54
e 1 60
e 1 72
e 2 3
e 2 6
e 2 7
e 2 10
e 2 12
e 2 25
e 2 27
e 2 36
e 2 38
e 2 40
e 2 49
e 2 50
e 2 52
e 2 54
e 2 60
e 3 5
e 3 10
e 3 12
e 3 25
e 3 27
e 3 36
e 3 40
e 3 46
e 3 49
e 3 50
e 3 54
e 3 60
e 3 63
e 4 8
e 4 15
e 4 21
e 4 22
e 4 29
e 4 30
e 4 39
e 4 43
e 4 45
e 4 56
e 4 66
e 5 10
e 5 25
e 5 27
e 5 40
e 5 46
e 5 49
e 5 50
e 5 60
e 5 63
e 6 7
e 6 10
e 6 18
e 6 25
e 6 27
e 6 36
e 6 38
e 6 40
e 6 49
e 6 50
e 6 52
e 6 54
e 6 60
e 6 62
e 6 72
e 7 10
e 7 17
e 7 25
e 7 27
e 7 34
e 7 36
e 7 44
e 7 49
e 7 50
e 7 52
e 7 54
e 7 55
e 7 62
e 7 72
e 8 15
e 8 18
e 8 21
e 8 22
e 8 29
e 8 30
e 8 38
e 8 39
e 8 43
e 8 45
e 8 52
e 8 56
e 8 62
e 8 66
e 8 70
e 9 15
e 9 19
e 9 20
e 9 21
e 9 29
e 9 34
e 9 39
e 9 48
e 9 56
e 9 59
e 9 61
e 9 66
e 9 67
e 9 68
e 9 69
e 9 70
e 10 25
e 10 27
e 10 40
e 10 46
e 10 49
e 10 50
e 10 54
e 10 60
e 10 63
e 11 13
e 11 16
e 11 23
e 11 24
e 11 35
e 11 37
e 11 44
e 11 55
e 11 65
e 12 27
e 12 36
e 12 40
e 12 54
e 12 60
e 13 16
e 13 23
e 13 24
e 13 35
e 14 16
e 14 17
e 14 23
e 14 26
e 14 28
e 14 31
e 14 32
e 14 33
e 14 34
e 14 35
e 14 37
e 14 41
e 14 44
e 14 47
e 14 48
e 14 51
e 14 53
e 14 55
e 14 57
e 14 65
e 15 20
e 15 21
e 15 22
e 15 29
e 15 30
e 15 39
e 15 45
e 15 56
e 15 59
e 15 61
e 15 66
e 15 68
e 15 69
e 15 70
e 16 17
e 16 23
e 16 24
e 16 35
e 16 44
e 16 49
e 16 55
e 16 63
e 16 65
e 16 72
e 17 25
e 17 34
e 17 35
e 17 44
e 17 49
e 17 50
e 17 55
e 17 65
e 17 72
e 18 22
e 18 30
e 18 38
e 18 39
e 18 43
e 18 52
e 18 62
e 18 66
e 19 20
e 19 26
e 19 31
e 19 32
e 19 42
e 19 47
e 19 48
e 19 53
e 19 57
e 19 58
e 19 59
e 19 61
e 19 64
e 19 67
e 19 68
e 19 69
e 19 70
e 19 71
e 20 31
e 20 34
e 20 39
e 20 47
e 20 48
e 20 56
e 20 59
e 20 61
e 20 66
e 20 67
e 20 68
e 20 69
e 20 70
e 21 22
e 21 29
e 21 30
e 21 39
e 21 43
e 21 45
e 21 56
e 21 61
e 21 66
e 21 70
e 22 29
e 22 30
e 22 39
e 22 43
e 22 45
e 22 56
e 22 62
e 22 66
e 23 24
e 23 28
e 23 33
e 23 35
e 23 37
e 23 51
e 23 65
e 24 35
e 24 37
e 25 27
e 25 36
e 25 40
e 25 44
e 25 46
e 25 49
e 25 50
e 25 52
e 25 54
e 25 55
e 25 60
e 25 63
e 25 72
e 26 28
e 26 31
e 26 32
e 26 33
e 26 35
e 26 37
e 26 41
e 26 42
e 26 47
e 26 48
e 26 51
e 26 53
e 26 57
e 26 58
e 26 65
e 26 67
e 26 71
e 27 36
e 27 40
e 27 46
e 27 49
e 27 50
e 27 52
e 27 54
e 27 60
e 27 63
e 28 31
e 28 32
e 28 33
e 28 35
e 28 37
e 28 41
e 28 47
e 28 51
e 28 53
e 28 57
e 28 65
e 29 30
e 29 39
e 29 43
e 29 45
e 29 56
e 29 61
e 29 66
e 29 70
e 30 39
e 30 43
e 30 45
e 30 56
e 30 62
e 30 66
e 31 32
e 31 33
e 31 34
e 31 35
e 31 37
e 31 41
e 31 42
e 31 47
e 31 48
e 31 51
e 31 53
e 31 57
e 31 58
e 31 65
e 31 67
e 31 68
e 31 69
e 31 71
e 32 33
e 32 37
e 32 41
e 32 42
e 32 47
e 32 48
e 32 51
e 32 53
e 32 57
e 32 58
e 32 65
e 32 67
e 32 71
e 33 35
e 33 37
e 33 41
e 33 47
e 33 48
e 33 51
e 33 53
e 33 57
e 33 58
e 33 65
e 33 71
e 34 39
e 34 44
e 34 47
e 34 48
e 34 52
e 34 55
e 34 65
e 34 68
e 34 69
e 34 70
e 34 72
e 35 37
e 35 44
e 35 51
e 35 55
e 35 65
e 36 38
e 36 40
e 36 49
e 36 50
e 36 52
e 36 54
e 36 60
e 37 41
e 37 51
e 37 53
e 37 57
e 37 65
e 38 43
e 38 52
e 38 54
e 38 62
e 39 43
e 39 45
e 39 52
e 39 56
e 39 61
e 39 62
e 39 66
e 39 68
e 39 70
e 40 46
e 40 49
e 40 50
e 40 54
e 40 60
e 40 63
e 41 42
e 41 47
e 41 48
e 41 51
e 41 53
e 41 57
e 41 58
e 41 67
e 41 71
e 42 47
e 42 48
e 42 53
e 42 57
e 42 58
e 42 59
e 42 64
e 42 67
e 42 69
e 42 71
e 43 45
e 43 52
e 43 56
e 43 62
e 43 66
e 44 49
e 44 50
e 44 55
e 44 63
e 44 65
e 44 72
e 45 56
e 45 66
e 46 49
e 46 50
e 46 60
e 46 63
e 47 48
e 47 51
e 47 53
e 47 57
e 47 58
e 47 59
e 47 64
e 47 65
e 47 67
e 47 68
e 47 69
e 47 71
e 48 51
e 48 53
e 48 57
e 48 58
e 48 59
e 48 64
e 48 65
e 48 67
e 48 68
e 48 69
e 48 71
e 49 50
e 49 52
e 49 54
e 49 55
e 49 63
e 49 72
e 50 52
e 50 54
e 50 55
e 50 60
e 50 63
e 50 72
e 51 53
e 51 57
e 51 58
e 51 65
e 51 67
e 51 71
e 52 54
e 52 62
e 52 72
e 53 57
e 53 58
e 53 65
e 53 67
e 53 71
e 54 60
e 55 65
e 55 72
e 56 59
e 56 61
e 56 62
e 56 66
e 56 68
e 56 70
e 57 58
e 57 67
e 57 71
e 58 64
e 58 67
e 58 69
e 58 71
e 59 61
e 59 64
e 59 66
e 59 67
e 59 68
e 59 69
e 59 70
e 61 64
e 61 66
e 61 68
e 61 69
e 61 70
e 62 66
e 64 67
e 64 68
e 64 69
e 64 71
e 65 72
e 66 68
e 66 70
e 67 68
e 67 69
e 67 71
e 68 69
e 68 70
e 69 70
